data;
param nbVertex:=20;
param nbColorFeasible:=12;
param cardCliqueMax:=12;

param graph:
 1 2 3 4 5 6 7 8 9 10 11 12 13 14 15 16 17 18 19 20 :=
 1 0 1 0 0 1 1 1 1 1 1 1 1 1 1 1 1 1 1 1 1
 2 1 0 1 1 1 1 1 1 1 1 1 1 1 1 1 0 1 0 1 1
 3 0 1 0 1 1 1 0 1 1 1 1 1 1 1 0 1 0 1 1 1
 4 0 1 1 0 1 1 1 1 0 1 1 1 1 1 0 1 1 1 1 0
 5 1 1 1 1 0 1 1 1 1 0 0 1 1 1 0 1 1 1 0 0
 6 1 1 1 1 1 0 0 1 1 1 1 1 1 1 1 1 1 1 1 1
 7 1 1 0 1 1 0 0 1 1 1 1 1 1 1 1 1 1 1 1 1
 8 1 1 1 1 1 1 1 0 0 1 1 1 1 1 1 1 1 1 1 1
 9 1 1 1 0 1 1 1 0 0 1 1 1 1 1 1 1 1 1 1 1
 10 1 1 1 1 0 1 1 1 1 0 1 1 1 1 1 1 1 1 1 1
 11 1 1 1 1 0 1 1 1 1 1 0 1 1 1 0 1 1 1 1 1
 12 1 1 1 1 1 1 1 1 1 1 1 0 1 1 1 1 1 1 1 1
 13 1 1 1 1 1 1 1 1 1 1 1 1 0 1 1 1 1 1 1 1
 14 1 1 1 1 1 1 1 1 1 1 1 1 1 0 1 1 0 1 1 1
 15 1 1 0 0 0 1 1 1 1 1 0 1 1 1 0 1 0 1 1 1
 16 1 0 1 1 1 1 1 1 1 1 1 1 1 1 1 0 1 1 1 1
 17 1 1 0 1 1 1 1 1 1 1 1 1 1 0 0 1 0 0 1 1
 18 1 0 1 1 1 1 1 1 1 1 1 1 1 1 1 1 0 0 1 0
 19 1 1 1 1 0 1 1 1 1 1 1 1 1 1 1 1 1 1 0 1
 20 1 1 1 0 0 1 1 1 1 1 1 1 1 1 1 1 1 0 1 0
;

param cliqueColors :=
1 0
2 0
3 1
4 2
5 0
6 3
7 0
8 4
9 0
10 5
11 6
12 7
13 8
14 9
15 0
16 10
17 0
18 11
19 12
20 0
;

end;
